100
128
58
6
63
21
2
61
20
14
18
54
64
5
51
48
23
51
54
10
26
59
26
22
14
13
39
51
2
31
14
11
40
46
41
27
50
34
41
19
10
33
12
47
45
23
42
63
44
10
24
13
16
13
20
14
48
15
24
10
13
14
24
41
25
22
16
20
49
56
32
48
29
29
16
25
36
19
32
19
2
3
27
18
28
23
43
38
20
17
57
9
32
17
30
21
22
39
64
36
64
3